(set-logic HORN)
(set-info :source |
    Benchmark: C_VC
    Output by Princess (http://www.philipp.ruemmer.org/princess.shtml)
|)
(set-info :status sat)
(declare-heap Heap Addr HeapObject
 defObj
 ((HeapObject 0)) (
  (
   (O_Int (getInt Int))
   (O_UInt (getUInt Int))
   (O_Addr (getAddr Addr))
   (defObj)
  )
))
(declare-fun inv_main2 (Heap Int) Bool)
(declare-fun inv_main26 (Heap Int Int Int AddrRange Int Int) Bool)
(declare-fun inv_main31 (Heap Int Int Int AddrRange Int Int) Bool)
(declare-fun inv_main32 (Heap Int Int Int AddrRange Int Int) Bool)
(declare-fun inv_main33 (Heap Int Int Int AddrRange Int Int) Bool)
(declare-fun inv_main34 (Heap Int Int Int AddrRange Int Int) Bool)
(declare-fun inv_main36 (Heap Int Int Int AddrRange Int Int) Bool)
(declare-fun inv_main39 (Heap Int Int Int AddrRange Int Int Int) Bool)
(assert (forall ((var0 Int) (var1 Heap)) (or (not (and (= var1 emptyHeap) (= var0 0))) (inv_main2 var1 var0))))
(assert (forall ((var0 Int) (var1 AddrRange) (var2 Int) (var3 Int) (var4 Heap) (var5 Int) (var6 Int) (var7 Int) (var8 Int) (var9 AddrRange) (var10 Int) (var11 Int) (var12 Int) (var13 Heap)) (or (not (and (inv_main31 var13 var12 var11 var10 var9 var8 var7) (and (and (<= 0 (+ var6 (* (- 1) var5))) (and (is-O_Int (read var13 (nthAddrRange var9 (+ (* 2 var10) (- 2))))) (is-O_Int (read var13 (nthAddrRange var9 (+ (* 2 var10) (- 2))))))) (and (and (and (and (and (and (= var4 (write var13 (nthAddrRange var9 (+ (* 2 var10) (- 2))) (O_Int var8))) (= var3 var12)) (= var5 var11)) (= var2 var10)) (= var1 var9)) (= var0 var8)) (= var6 var7))))) (inv_main33 var4 var3 var5 var2 var1 var0 var6))))
(assert (forall ((var0 Int) (var1 AddrRange) (var2 Int) (var3 Int) (var4 Heap) (var5 Int) (var6 Int) (var7 Int) (var8 Int) (var9 AddrRange) (var10 Int) (var11 Int) (var12 Int) (var13 Heap)) (or (not (and (inv_main32 var13 var12 var11 var10 var9 var8 var7) (and (and (<= 0 (+ var6 (* (- 1) var5))) (and (is-O_Int (read var13 (nthAddrRange var9 (+ (* 2 var10) (- 2))))) (is-O_Int (read var13 (nthAddrRange var9 (+ (* 2 var10) (- 2))))))) (and (and (and (and (and (and (= var4 (write var13 (nthAddrRange var9 (+ (* 2 var10) (- 2))) (O_Int 0))) (= var3 var12)) (= var5 var11)) (= var2 var10)) (= var1 var9)) (= var0 var8)) (= var6 var7))))) (inv_main33 var4 var3 var5 var2 var1 var0 var6))))
(assert (forall ((var0 Int) (var1 Int) (var2 AddrRange) (var3 Int) (var4 Int) (var5 Int) (var6 Heap) (var7 Int)) (or (not (and (inv_main26 var6 var5 var4 var3 var2 var1 var0) (and (<= 0 (+ var1 (* (- 1) var4))) (and (and (and (and (<= 0 (+ (+ 2 (* (- 1) (+ var5 (* (- 2) var7)))) (- 1))) (<= 0 (+ (+ 2 (* 1 (+ var5 (* (- 2) var7)))) (- 1)))) (or (not (<= 0 (+ (+ var5 (* (- 2) var7)) (- 1)))) (<= 0 (+ var5 (- 1))))) (or (not (<= 0 (+ (* (- 1) (+ var5 (* (- 2) var7))) (- 1)))) (<= 0 (+ (* (- 1) var5) (- 1))))) (<= 0 (+ var7 (* (- 1) var3))))))) (inv_main31 var6 var5 var4 var3 var2 var1 var0))))
(assert (forall ((var0 Int) (var1 Int) (var2 AddrRange) (var3 Int) (var4 Int) (var5 Int) (var6 Heap) (var7 Int)) (or (not (and (inv_main26 var6 var5 var4 var3 var2 var1 var0) (and (not (<= 0 (+ var1 (* (- 1) var4)))) (and (and (and (and (<= 0 (+ (+ 2 (* (- 1) (+ var5 (* (- 2) var7)))) (- 1))) (<= 0 (+ (+ 2 (* 1 (+ var5 (* (- 2) var7)))) (- 1)))) (or (not (<= 0 (+ (+ var5 (* (- 2) var7)) (- 1)))) (<= 0 (+ var5 (- 1))))) (or (not (<= 0 (+ (* (- 1) (+ var5 (* (- 2) var7))) (- 1)))) (<= 0 (+ (* (- 1) var5) (- 1))))) (<= 0 (+ var7 (* (- 1) var3))))))) (inv_main32 var6 var5 var4 var3 var2 var1 var0))))
(assert (forall ((var0 Int) (var1 Int) (var2 Int) (var3 AddrRange) (var4 Int) (var5 Int) (var6 Int) (var7 Heap) (var8 Int)) (or (not (and (inv_main26 var7 var6 var5 var4 var3 var2 var1) (and (and (<= 0 (+ var6 (- 1))) (not (or (not (and (and (and (<= 0 (+ (+ 2 (* (- 1) (+ var6 (* (- 2) var8)))) (- 1))) (<= 0 (+ (+ 2 (* 1 (+ var6 (* (- 2) var8)))) (- 1)))) (or (not (<= 0 (+ (+ var6 (* (- 2) var8)) (- 1)))) (<= 0 (+ var6 (- 1))))) (or (not (<= 0 (+ (* (- 1) (+ var6 (* (- 2) var8))) (- 1)))) (<= 0 (+ (* (- 1) var6) (- 1)))))) (<= 0 (+ var8 (* (- 1) var4)))))) (= var0 0)))) (inv_main36 var7 var6 var5 var0 var3 var2 var1))))
(assert (forall ((var0 Int) (var1 Int) (var2 Int) (var3 Int) (var4 AddrRange) (var5 Int) (var6 Int) (var7 Int) (var8 Heap)) (or (not (and (inv_main39 var8 var7 var6 var5 var4 var3 var2 var1) (and (<= 0 (+ (+ var7 (* (- 1) (+ var5 1))) (- 1))) (= var0 (+ var5 1))))) (inv_main36 var8 var7 var6 var0 var4 var3 var2))))
(assert (forall ((var0 Int) (var1 Int) (var2 Int) (var3 AddrRange) (var4 Int) (var5 Int) (var6 Int) (var7 Heap) (var8 Int) (var9 Int) (var10 AddrRange) (var11 Int) (var12 Int) (var13 Int) (var14 Heap)) (or (not (and (inv_main33 var14 var13 var12 var11 var10 var9 var8) (and (and (and (is-O_Int (read var14 (nthAddrRange var10 (+ (* 2 var11) (- 1))))) (is-O_Int (read var14 (nthAddrRange var10 (+ (* 2 var11) (- 1)))))) (and (and (and (and (and (and (= var7 (write var14 (nthAddrRange var10 (+ (* 2 var11) (- 1))) (O_Int var8))) (= var6 var13)) (= var5 var12)) (= var4 var11)) (= var3 var10)) (= var2 var9)) (= var1 var8))) (= var0 (+ var4 1))))) (inv_main26 var7 var6 var5 var0 var3 var2 var1))))
(assert (forall ((var0 Int) (var1 Int) (var2 Int) (var3 AddrRange) (var4 Int) (var5 Int) (var6 Int) (var7 Heap) (var8 Int) (var9 Int) (var10 AddrRange) (var11 Int) (var12 Int) (var13 Int) (var14 Heap)) (or (not (and (inv_main34 var14 var13 var12 var11 var10 var9 var8) (and (and (and (is-O_Int (read var14 (nthAddrRange var10 (+ (* 2 var11) (- 1))))) (is-O_Int (read var14 (nthAddrRange var10 (+ (* 2 var11) (- 1)))))) (and (and (and (and (and (and (= var7 (write var14 (nthAddrRange var10 (+ (* 2 var11) (- 1))) (O_Int 0))) (= var6 var13)) (= var5 var12)) (= var4 var11)) (= var3 var10)) (= var2 var9)) (= var1 var8))) (= var0 (+ var4 1))))) (inv_main26 var7 var6 var5 var0 var3 var2 var1))))
(assert (forall ((var0 Int) (var1 Int) (var2 Int) (var3 Int) (var4 Int) (var5 Int) (var6 Int) (var7 AddrRange) (var8 AddrRange) (var9 Int) (var10 Int) (var11 Int) (var12 Int) (var13 Int) (var14 Int) (var15 Heap) (var16 Heap) (var17 Int) (var18 Int) (var19 Heap) (var20 Int) (var21 Int) (var22 Int) (var23 Int) (var24 Int) (var25 Int)) (or (not (and (inv_main2 var19 var18) (and (and (and (and (and (not (= var17 0)) (and (and (and (and (and (and (and (= var16 var15) (= var14 var13)) (= var12 var11)) (= var10 var9)) (= var8 var7)) (= var6 3)) (= var5 1)) (or (and (and (and (and (and (and (<= 0 (+ (+ 2 (* (- 1) var20)) (- 1))) (<= 0 (+ (+ 2 (* 1 var20)) (- 1)))) (or (not (<= 0 (+ var20 (- 1)))) (<= 0 (+ var13 (- 1))))) (or (not (<= 0 (+ (* (- 1) var20) (- 1)))) (<= 0 (+ (* (- 1) var13) (- 1))))) (= var13 (+ (* 2 var21) var20))) (= var20 0)) (= var17 1)) (and (not (or (not (and (and (and (and (<= 0 (+ (+ 2 (* (- 1) var22)) (- 1))) (<= 0 (+ (+ 2 (* 1 var22)) (- 1)))) (or (not (<= 0 (+ var22 (- 1)))) (<= 0 (+ var13 (- 1))))) (or (not (<= 0 (+ (* (- 1) var22) (- 1)))) (<= 0 (+ (* (- 1) var13) (- 1))))) (= var13 (+ (* 2 var23) var22)))) (= var22 0))) (= var17 0))))) (and (and (and (and (and (<= 0 (+ (+ 2 (* (- 1) var24)) (- 1))) (<= 0 (+ (+ 2 (* 1 var24)) (- 1)))) (or (not (<= 0 (+ var24 (- 1)))) (<= 0 (+ var13 (- 1))))) (or (not (<= 0 (+ (* (- 1) var24) (- 1)))) (<= 0 (+ (* (- 1) var13) (- 1))))) (= var13 (+ (* 2 var25) var24))) (= var24 0))) (and (and (and (and (= var15 (newBatchHeap (batchAlloc emptyHeap (O_Int var4) var3))) (= var13 var3)) (= var11 var2)) (= var9 var1)) (= var7 (newAddrRange (batchAlloc emptyHeap (O_Int var4) var3))))) (<= 0 (+ (+ var3 (- 1)) (- 1)))) (= var0 1)))) (inv_main26 var16 var14 var12 var0 var8 var6 var5))))
(assert (forall ((var0 Int) (var1 Int) (var2 Int) (var3 AddrRange) (var4 Int) (var5 Int) (var6 Int) (var7 Heap) (var8 Int) (var9 Int) (var10 AddrRange) (var11 Int) (var12 Int) (var13 Int) (var14 Heap)) (or (not (and (inv_main36 var14 var13 var12 var11 var10 var9 var8) (and (and (and (is-O_Int (read var14 (nthAddrRange var10 var11))) (not (<= 0 (+ (getInt (read var14 (nthAddrRange var10 var11))) (* (- 1) var12))))) (is-O_Int (read var14 (nthAddrRange var10 var11)))) (and (and (and (and (and (and (and (= var7 var14) (= var6 var13)) (= var5 var12)) (= var4 var11)) (= var3 var10)) (= var2 var9)) (= var1 var8)) (or (and (= (getInt (read var14 (nthAddrRange var10 var11))) 0) (= var0 1)) (and (not (= (getInt (read var14 (nthAddrRange var10 var11))) 0)) (= var0 0))))))) (inv_main39 var7 var6 var5 var4 var3 var2 var1 var0))))
(assert (forall ((var0 Int) (var1 Int) (var2 Int) (var3 AddrRange) (var4 Int) (var5 Int) (var6 Int) (var7 Heap)) (or (not (and (inv_main36 var7 var6 var5 var4 var3 var2 var1) (and (and (is-O_Int (read var7 (nthAddrRange var3 var4))) (<= 0 (+ (getInt (read var7 (nthAddrRange var3 var4))) (* (- 1) var5)))) (= var0 1)))) (inv_main39 var7 var6 var5 var4 var3 var2 var1 var0))))
(assert (forall ((var0 Int) (var1 AddrRange) (var2 Int) (var3 Int) (var4 Heap) (var5 Int) (var6 Int) (var7 Int) (var8 Int) (var9 AddrRange) (var10 Int) (var11 Int) (var12 Int) (var13 Heap)) (or (not (and (inv_main31 var13 var12 var11 var10 var9 var8 var7) (and (and (not (<= 0 (+ var6 (* (- 1) var5)))) (and (is-O_Int (read var13 (nthAddrRange var9 (+ (* 2 var10) (- 2))))) (is-O_Int (read var13 (nthAddrRange var9 (+ (* 2 var10) (- 2))))))) (and (and (and (and (and (and (= var4 (write var13 (nthAddrRange var9 (+ (* 2 var10) (- 2))) (O_Int var8))) (= var3 var12)) (= var5 var11)) (= var2 var10)) (= var1 var9)) (= var0 var8)) (= var6 var7))))) (inv_main34 var4 var3 var5 var2 var1 var0 var6))))
(assert (forall ((var0 Int) (var1 AddrRange) (var2 Int) (var3 Int) (var4 Heap) (var5 Int) (var6 Int) (var7 Int) (var8 Int) (var9 AddrRange) (var10 Int) (var11 Int) (var12 Int) (var13 Heap)) (or (not (and (inv_main32 var13 var12 var11 var10 var9 var8 var7) (and (and (not (<= 0 (+ var6 (* (- 1) var5)))) (and (is-O_Int (read var13 (nthAddrRange var9 (+ (* 2 var10) (- 2))))) (is-O_Int (read var13 (nthAddrRange var9 (+ (* 2 var10) (- 2))))))) (and (and (and (and (and (and (= var4 (write var13 (nthAddrRange var9 (+ (* 2 var10) (- 2))) (O_Int 0))) (= var3 var12)) (= var5 var11)) (= var2 var10)) (= var1 var9)) (= var0 var8)) (= var6 var7))))) (inv_main34 var4 var3 var5 var2 var1 var0 var6))))
(assert (forall ((var0 Int) (var1 Int) (var2 AddrRange) (var3 Int) (var4 Int) (var5 Int) (var6 Heap)) (not (and (inv_main31 var6 var5 var4 var3 var2 var1 var0) (not (is-O_Int (read var6 (nthAddrRange var2 (+ (* 2 var3) (- 2))))))))))
(assert (forall ((var0 Int) (var1 Int) (var2 AddrRange) (var3 Int) (var4 Int) (var5 Int) (var6 Heap)) (not (and (inv_main31 var6 var5 var4 var3 var2 var1 var0) (and (is-O_Int (read var6 (nthAddrRange var2 (+ (* 2 var3) (- 2))))) (not (within var2 (nthAddrRange var2 (+ (* 2 var3) (- 2))))))))))
(assert (forall ((var0 Int) (var1 Int) (var2 AddrRange) (var3 Int) (var4 Int) (var5 Int) (var6 Heap)) (not (and (inv_main31 var6 var5 var4 var3 var2 var1 var0) (and (is-O_Int (read var6 (nthAddrRange var2 (+ (* 2 var3) (- 2))))) (not (is-O_Int (read var6 (nthAddrRange var2 (+ (* 2 var3) (- 2)))))))))))
(assert (forall ((var0 Int) (var1 Int) (var2 AddrRange) (var3 Int) (var4 Int) (var5 Int) (var6 Heap)) (not (and (inv_main32 var6 var5 var4 var3 var2 var1 var0) (not (is-O_Int (read var6 (nthAddrRange var2 (+ (* 2 var3) (- 2))))))))))
(assert (forall ((var0 Int) (var1 Int) (var2 AddrRange) (var3 Int) (var4 Int) (var5 Int) (var6 Heap)) (not (and (inv_main32 var6 var5 var4 var3 var2 var1 var0) (and (is-O_Int (read var6 (nthAddrRange var2 (+ (* 2 var3) (- 2))))) (not (within var2 (nthAddrRange var2 (+ (* 2 var3) (- 2))))))))))
(assert (forall ((var0 Int) (var1 Int) (var2 AddrRange) (var3 Int) (var4 Int) (var5 Int) (var6 Heap)) (not (and (inv_main32 var6 var5 var4 var3 var2 var1 var0) (and (is-O_Int (read var6 (nthAddrRange var2 (+ (* 2 var3) (- 2))))) (not (is-O_Int (read var6 (nthAddrRange var2 (+ (* 2 var3) (- 2)))))))))))
(assert (forall ((var0 Int) (var1 Int) (var2 AddrRange) (var3 Int) (var4 Int) (var5 Int) (var6 Heap)) (not (and (inv_main33 var6 var5 var4 var3 var2 var1 var0) (not (is-O_Int (read var6 (nthAddrRange var2 (+ (* 2 var3) (- 1))))))))))
(assert (forall ((var0 Int) (var1 Int) (var2 AddrRange) (var3 Int) (var4 Int) (var5 Int) (var6 Heap)) (not (and (inv_main33 var6 var5 var4 var3 var2 var1 var0) (and (is-O_Int (read var6 (nthAddrRange var2 (+ (* 2 var3) (- 1))))) (not (within var2 (nthAddrRange var2 (+ (* 2 var3) (- 1))))))))))
(assert (forall ((var0 Int) (var1 Int) (var2 AddrRange) (var3 Int) (var4 Int) (var5 Int) (var6 Heap)) (not (and (inv_main33 var6 var5 var4 var3 var2 var1 var0) (and (is-O_Int (read var6 (nthAddrRange var2 (+ (* 2 var3) (- 1))))) (not (is-O_Int (read var6 (nthAddrRange var2 (+ (* 2 var3) (- 1)))))))))))
(assert (forall ((var0 Int) (var1 Int) (var2 AddrRange) (var3 Int) (var4 Int) (var5 Int) (var6 Heap)) (not (and (inv_main34 var6 var5 var4 var3 var2 var1 var0) (not (is-O_Int (read var6 (nthAddrRange var2 (+ (* 2 var3) (- 1))))))))))
(assert (forall ((var0 Int) (var1 Int) (var2 AddrRange) (var3 Int) (var4 Int) (var5 Int) (var6 Heap)) (not (and (inv_main34 var6 var5 var4 var3 var2 var1 var0) (and (is-O_Int (read var6 (nthAddrRange var2 (+ (* 2 var3) (- 1))))) (not (within var2 (nthAddrRange var2 (+ (* 2 var3) (- 1))))))))))
(assert (forall ((var0 Int) (var1 Int) (var2 AddrRange) (var3 Int) (var4 Int) (var5 Int) (var6 Heap)) (not (and (inv_main34 var6 var5 var4 var3 var2 var1 var0) (and (is-O_Int (read var6 (nthAddrRange var2 (+ (* 2 var3) (- 1))))) (not (is-O_Int (read var6 (nthAddrRange var2 (+ (* 2 var3) (- 1)))))))))))
(assert (forall ((var0 Int) (var1 Int) (var2 AddrRange) (var3 Int) (var4 Int) (var5 Int) (var6 Heap)) (not (and (inv_main36 var6 var5 var4 var3 var2 var1 var0) (not (is-O_Int (read var6 (nthAddrRange var2 var3))))))))
(assert (forall ((var0 Int) (var1 Int) (var2 AddrRange) (var3 Int) (var4 Int) (var5 Int) (var6 Heap)) (not (and (inv_main36 var6 var5 var4 var3 var2 var1 var0) (not (within var2 (nthAddrRange var2 var3)))))))
(assert (forall ((var0 Int) (var1 Int) (var2 AddrRange) (var3 Int) (var4 Int) (var5 Int) (var6 Heap)) (not (and (inv_main36 var6 var5 var4 var3 var2 var1 var0) (not (is-O_Int (read var6 (nthAddrRange var2 var3))))))))
(assert (forall ((var0 Int) (var1 Int) (var2 AddrRange) (var3 Int) (var4 Int) (var5 Int) (var6 Heap)) (not (and (inv_main36 var6 var5 var4 var3 var2 var1 var0) (not (within var2 (nthAddrRange var2 var3)))))))
(assert (forall ((var0 Int) (var1 Int) (var2 AddrRange) (var3 Int) (var4 Int) (var5 Int) (var6 Heap)) (not (and (inv_main36 var6 var5 var4 var3 var2 var1 var0) (not (is-O_Int (read var6 (nthAddrRange var2 var3))))))))
(assert (forall ((var0 Int) (var1 Int) (var2 AddrRange) (var3 Int) (var4 Int) (var5 Int) (var6 Heap)) (not (and (inv_main36 var6 var5 var4 var3 var2 var1 var0) (and (is-O_Int (read var6 (nthAddrRange var2 var3))) (not (within var2 (nthAddrRange var2 var3))))))))
(assert (forall ((var0 Int) (var1 Int) (var2 AddrRange) (var3 Int) (var4 Int) (var5 Int) (var6 Heap)) (not (and (inv_main36 var6 var5 var4 var3 var2 var1 var0) (and (and (is-O_Int (read var6 (nthAddrRange var2 var3))) (not (<= 0 (+ (getInt (read var6 (nthAddrRange var2 var3))) (* (- 1) var4))))) (not (is-O_Int (read var6 (nthAddrRange var2 var3)))))))))
(assert (forall ((var0 Int) (var1 Int) (var2 AddrRange) (var3 Int) (var4 Int) (var5 Int) (var6 Heap)) (not (and (inv_main36 var6 var5 var4 var3 var2 var1 var0) (and (and (and (is-O_Int (read var6 (nthAddrRange var2 var3))) (not (<= 0 (+ (getInt (read var6 (nthAddrRange var2 var3))) (* (- 1) var4))))) (is-O_Int (read var6 (nthAddrRange var2 var3)))) (not (within var2 (nthAddrRange var2 var3))))))))
(assert (forall ((var0 Int) (var1 Int) (var2 Int) (var3 AddrRange) (var4 Int) (var5 Int) (var6 Int) (var7 Heap)) (not (and (inv_main39 var7 var6 var5 var4 var3 var2 var1 var0) (= var0 0)))))
(check-sat)
